g3 0 1 0	# problem d7n5R2R6d01d1
 5 7 1 0 2	# vars, constraints, objectives, ranges, eqns
 4 1	# nonlinear constraints, objectives
 0 0	# network constraints: nonlinear, linear
 5 5 5	# nonlinear vars in constraints, objectives, both
 0 0 0 1	# linear network variables; functions; arith, flags
 0 0 0 0 0	# discrete variables: binary, integer, nonlinear (b,c,o)
 35 5	# nonzeros in Jacobian, gradients
 0 0	# max name lengths: constraints, variables
 0 0 0 0 0	# common exprs: b,c,o,c1,o1
b
0 0.77 2.68
0 0.84 2.61
0 0.34 2.93
0 0.81 2.75
0 0.08 2.4
r
2 78.062
2 190.536
2 211.62
2 826.608
4 40.987
4 32.022
2 52.603
C0
o0
o2
o2
n8.99
v2
v4
o2
o2
n8.98
v3
v3
C1
o54
7
o2
o2
n6.14
v2
v4
o2
o2
n3.9
v3
v3
o2
o2
o2
n0.65
v0
v0
v0
o2
o2
o2
n8.84
v0
v0
v2
o2
o2
o2
n7.66
v0
v2
v4
o2
o2
o2
n6.88
v1
v3
v4
o2
o2
o2
n9.7
v3
v4
v4
C2
o54
13
o2
o2
n2.96
v2
v4
o2
o2
n0.12
v3
v3
o2
o2
o2
n0.32
v0
v0
v0
o16
o2
o2
o2
n7.36
v0
v0
v2
o2
o2
o2
n4.99
v0
v2
v4
o2
o2
o2
n4.78
v1
v3
v4
o2
o2
o2
n2.74
v3
v4
v4
o2
o2
o2
o2
n3.41
v0
v0
v2
v2
o2
o2
o2
o2
n3.68
v0
v0
v4
v4
o2
o2
o2
o2
n2.68
v0
v1
v1
v4
o2
o2
o2
o2
n9.4
v1
v1
v1
v3
o2
o2
o2
o2
n7.5
v1
v2
v3
v4
o16
o2
o2
o2
o2
n9.08
v2
v4
v4
v4
C3
o54
26
o2
o2
n7.01
v2
v4
o2
o2
n7.07
v3
v3
o16
o2
o2
o2
n0.93
v0
v0
v0
o2
o2
o2
n2.78
v0
v0
v2
o2
o2
o2
n8.84
v0
v2
v4
o2
o2
o2
n3
v1
v3
v4
o2
o2
o2
n5.32
v3
v4
v4
o2
o2
o2
o2
n3.62
v0
v0
v2
v2
o16
o2
o2
o2
o2
n6.4
v0
v0
v4
v4
o2
o2
o2
o2
n5.75
v0
v1
v1
v4
o2
o2
o2
o2
n3.34
v1
v1
v1
v3
o2
o2
o2
o2
n2.03
v1
v2
v3
v4
o2
o2
o2
o2
n1.85
v2
v4
v4
v4
o2
o2
o2
o2
o2
n2.3
v0
v0
v0
v0
v3
o2
o2
o2
o2
o2
n5.91
v0
v0
v0
v1
v1
o2
o2
o2
o2
o2
n0.29
v0
v0
v2
v2
v3
o2
o2
o2
o2
o2
n0.18
v0
v1
v1
v3
v4
o2
o2
o2
o2
o2
n7.78
v0
v1
v3
v3
v3
o2
o2
o2
o2
o2
n0.06
v1
v1
v1
v2
v4
o2
o2
o2
o2
o2
n7.87
v1
v1
v2
v2
v4
o2
o2
o2
o2
o2
n3.53
v1
v3
v3
v3
v4
o2
o2
o2
o2
o2
n3.85
v2
v2
v4
v4
v4
o2
o2
o2
o2
o2
n3.77
v2
v3
v3
v4
v4
o2
o2
o2
o2
o2
n5.35
v3
v3
v3
v3
v3
o2
o2
o2
o2
o2
n6.63
v3
v3
v3
v3
v4
o2
o2
o2
o2
o2
n8.2
v4
v4
v4
v4
v4
C4
n0
C5
n0
C6
n0
O0 0
o54
79
o16
o2
o2
n2.96
v2
v4
o2
o2
n5.59
v3
v3
o2
o2
o2
n4.24
v0
v0
v0
o2
o2
o2
n6.2
v0
v0
v2
o2
o2
o2
n3.82
v0
v2
v4
o2
o2
o2
n2.38
v1
v3
v4
o2
o2
o2
n8.21
v3
v4
v4
o2
o2
o2
o2
n9.97
v0
v0
v2
v2
o2
o2
o2
o2
n4.32
v0
v0
v4
v4
o2
o2
o2
o2
n0.94
v0
v1
v1
v4
o16
o2
o2
o2
o2
n8.24
v1
v1
v1
v3
o2
o2
o2
o2
n5.1
v1
v2
v3
v4
o2
o2
o2
o2
n3.06
v2
v4
v4
v4
o2
o2
o2
o2
o2
n2.86
v0
v0
v0
v0
v3
o2
o2
o2
o2
o2
n5.98
v0
v0
v0
v1
v1
o2
o2
o2
o2
o2
n1.76
v0
v0
v2
v2
v3
o2
o2
o2
o2
o2
n0.05
v0
v1
v1
v3
v4
o2
o2
o2
o2
o2
n4.77
v0
v1
v3
v3
v3
o2
o2
o2
o2
o2
n0.88
v1
v1
v1
v2
v4
o16
o2
o2
o2
o2
o2
n2.97
v1
v1
v2
v2
v4
o2
o2
o2
o2
o2
n3.58
v1
v3
v3
v3
v4
o2
o2
o2
o2
o2
n0.56
v2
v2
v4
v4
v4
o2
o2
o2
o2
o2
n0.27
v2
v3
v3
v4
v4
o2
o2
o2
o2
o2
n4.98
v3
v3
v3
v3
v3
o2
o2
o2
o2
o2
n3.44
v3
v3
v3
v3
v4
o2
o2
o2
o2
o2
n9.88
v4
v4
v4
v4
v4
o2
o2
o2
o2
o2
o2
n5.6
v0
v0
v0
v3
v3
v3
o2
o2
o2
o2
o2
o2
n3.88
v0
v0
v1
v1
v1
v2
o2
o2
o2
o2
o2
o2
n0.29
v0
v0
v2
v2
v2
v3
o2
o2
o2
o2
o2
o2
n2.82
v0
v0
v2
v2
v2
v4
o2
o2
o2
o2
o2
o2
n5.04
v0
v1
v1
v3
v3
v3
o2
o2
o2
o2
o2
o2
n8.4
v0
v2
v2
v3
v3
v3
o2
o2
o2
o2
o2
o2
n1.34
v1
v1
v1
v1
v4
v4
o2
o2
o2
o2
o2
o2
n0.92
v1
v1
v2
v2
v2
v2
o2
o2
o2
o2
o2
o2
n2.19
v1
v2
v2
v2
v2
v3
o2
o2
o2
o2
o2
o2
n9.05
v1
v2
v2
v4
v4
v4
o2
o2
o2
o2
o2
o2
n2.27
v2
v2
v2
v2
v4
v4
o2
o2
o2
o2
o2
o2
n4.38
v2
v3
v3
v3
v3
v3
o16
o2
o2
o2
o2
o2
o2
n1.22
v2
v3
v3
v3
v4
v4
o2
o2
o2
o2
o2
o2
n3.49
v4
v4
v4
v4
v4
v4
o2
o2
o2
o2
o2
o2
o2
n5.36
v0
v0
v0
v0
v0
v0
v0
o2
o2
o2
o2
o2
o2
o2
n5.56
v0
v0
v0
v0
v0
v0
v1
o2
o2
o2
o2
o2
o2
o2
n8.04
v0
v0
v0
v0
v0
v1
v4
o16
o2
o2
o2
o2
o2
o2
o2
n8.09
v0
v0
v0
v0
v0
v2
v2
o2
o2
o2
o2
o2
o2
o2
n3.98
v0
v0
v0
v1
v1
v1
v3
o2
o2
o2
o2
o2
o2
o2
n8.69
v0
v0
v0
v1
v2
v3
v3
o2
o2
o2
o2
o2
o2
o2
n7.96
v0
v0
v0
v1
v2
v4
v4
o2
o2
o2
o2
o2
o2
o2
n5.78
v0
v0
v0
v1
v4
v4
v4
o2
o2
o2
o2
o2
o2
o2
n3.16
v0
v0
v0
v2
v2
v2
v2
o2
o2
o2
o2
o2
o2
o2
n5.84
v0
v0
v0
v2
v2
v2
v4
o2
o2
o2
o2
o2
o2
o2
n9.38
v0
v0
v0
v2
v2
v3
v4
o2
o2
o2
o2
o2
o2
o2
n0.21
v0
v0
v1
v1
v1
v2
v4
o2
o2
o2
o2
o2
o2
o2
n6.57
v0
v0
v1
v1
v3
v3
v3
o2
o2
o2
o2
o2
o2
o2
n9.15
v0
v0
v1
v1
v4
v4
v4
o2
o2
o2
o2
o2
o2
o2
n3.89
v0
v0
v1
v3
v3
v4
v4
o2
o2
o2
o2
o2
o2
o2
n6.02
v0
v0
v2
v2
v4
v4
v4
o2
o2
o2
o2
o2
o2
o2
n9.67
v0
v1
v1
v1
v1
v2
v2
o2
o2
o2
o2
o2
o2
o2
n9.32
v0
v1
v1
v1
v3
v3
v4
o2
o2
o2
o2
o2
o2
o2
n2.54
v0
v1
v1
v1
v4
v4
v4
o2
o2
o2
o2
o2
o2
o2
n5.51
v0
v1
v1
v2
v2
v2
v3
o2
o2
o2
o2
o2
o2
o2
n9.1
v0
v1
v1
v2
v2
v3
v3
o16
o2
o2
o2
o2
o2
o2
o2
n0.33
v0
v1
v3
v3
v3
v3
v4
o2
o2
o2
o2
o2
o2
o2
n8.36
v0
v2
v2
v2
v2
v4
v4
o2
o2
o2
o2
o2
o2
o2
n1.46
v0
v2
v2
v4
v4
v4
v4
o2
o2
o2
o2
o2
o2
o2
n8.37
v0
v2
v3
v3
v3
v3
v4
o2
o2
o2
o2
o2
o2
o2
n0.4
v0
v2
v3
v4
v4
v4
v4
o2
o2
o2
o2
o2
o2
o2
n5.19
v0
v2
v4
v4
v4
v4
v4
o2
o2
o2
o2
o2
o2
o2
n6.23
v0
v3
v4
v4
v4
v4
v4
o2
o2
o2
o2
o2
o2
o2
n9.76
v1
v1
v1
v1
v1
v1
v2
o2
o2
o2
o2
o2
o2
o2
n9.25
v1
v1
v1
v1
v3
v3
v4
o2
o2
o2
o2
o2
o2
o2
n2.69
v1
v1
v1
v2
v2
v2
v4
o2
o2
o2
o2
o2
o2
o2
n7.12
v1
v1
v1
v3
v3
v3
v3
o2
o2
o2
o2
o2
o2
o2
n2.51
v1
v1
v2
v3
v3
v4
v4
o2
o2
o2
o2
o2
o2
o2
n1.54
v1
v1
v3
v3
v3
v3
v4
o2
o2
o2
o2
o2
o2
o2
n7.62
v1
v2
v2
v3
v4
v4
v4
o2
o2
o2
o2
o2
o2
o2
n7.98
v1
v4
v4
v4
v4
v4
v4
o2
o2
o2
o2
o2
o2
o2
n7.19
v2
v2
v2
v3
v4
v4
v4
o2
o2
o2
o2
o2
o2
o2
n6.62
v2
v4
v4
v4
v4
v4
v4
o16
o2
o2
o2
o2
o2
o2
o2
n1.42
v3
v3
v3
v3
v3
v4
v4
k4
7
14
21
28
J0 5
0 1.38
1 8.36
2 1.72
3 3.61
4 4.31
J1 5
0 2.71
1 6.27
2 8.77
3 4.35
4 1.84
J2 5
0 5.25
1 0.56
2 6.66
3 4.13
4 2.18
J3 5
0 5.66
1 -8.61
2 2.1
3 1.66
4 1.72
J4 5
0 8.81
1 1
2 7.09
3 4.52
4 3.57
J5 5
0 2.2
1 8.16
2 4.05
3 1.68
4 3.66
J6 5
0 6.56
1 3.59
2 8.01
3 8.29
4 5.84
G0 5
0 8.05
1 3.86
2 8.02
3 8.73
4 2.38
